(declare-fun e () String)
(declare-fun c () String)
(declare-fun g () String)
(declare-fun b () String)
(declare-fun f () String)
(declare-fun a () String)
(declare-fun h () String)
(assert (= b (str.++ "b" h c "a")))
(assert (= h (str.++ "dff" e "hb")))
(assert (= (str.++ g "f" g a) (str.++ f f "c")))

(check-sat)
